Maximize
F 

Subject to
F - 12.0y272 - 3.0y73 - 9.0y181 - 12.0y53 - 9.0y102 - 3.0y91 - 12.0y254 - 12.0y132 - 6.0y214 - 3.0y48 - 9.0y27 - 6.0y116 - 6.0y156 - 6.0y207 - 3.0y204 - 9.0y20 - 3.0y15 - 12.0y8 - 9.0y41 = 0

x176x181x1 + x176x53x1 + x176x102x1 + x176x254x1 + x176x132x1 + x176x214x1 + x176x48x1 + x176x27x1 + x176x156x1 + x176x207x1 + x176x20x1 + x176x8x1 
<= 1
x220x156x1 + x220x207x1 
<= 2

x196x15x2 
<= 1
x22x272x2 + x22x53x2 + x22x91x2 + x22x48x2 + x22x116x2 + x22x207x2 + x22x15x2 
<= 1
x86x53x2 + x86x91x2 + x86x48x2 + x86x116x2 + x86x207x2 + x86x15x2 
<= 1
x143x204x3 
<= 2
x259x41x3 
<= 2

x22x272x2 
- x272x0x2
- x272x116x2 - x272x207x2 - x272x15x2 
= 0

- x272x214x3 - x272x204x3 - x272x20x3 - x272x15x3 - x272x41x3 
= 0




- x73x156x3 - x73x41x3 
= 0

x176x181x1 
- x181x0x1
- x181x214x1 - x181x20x1 - x181x8x1 
= 0


- x181x214x3 - x181x204x3 - x181x20x3 - x181x15x3 - x181x41x3 
= 0

x176x53x1 
- x53x0x1
- x53x132x1 - x53x27x1 
= 0
x22x53x2 + x86x53x2 
- x53x0x2
- x53x15x2 
= 0


x176x102x1 
- x102x0x1
- x102x214x1 - x102x48x1 - x102x156x1 - x102x207x1 - x102x20x1 - x102x8x1 
= 0


- x102x214x3 - x102x156x3 - x102x204x3 - x102x20x3 - x102x15x3 - x102x41x3 
= 0


x22x91x2 + x86x91x2 
- x91x0x2
- x91x207x2 - x91x15x2 
= 0

- x91x156x3 - x91x20x3 - x91x15x3 - x91x41x3 
= 0

x176x254x1 
- x254x0x1
- x254x156x1 - x254x207x1 
= 0



x176x132x1 + x53x132x1 
- x132x0x1
- x132x27x1 
= 0



x176x214x1 + x181x214x1 + x102x214x1 
- x214x0x1
- x214x20x1 - x214x8x1 
= 0

x272x214x3 + x181x214x3 + x102x214x3 
- x214x0x3
- x214x204x3 - x214x20x3 - x214x15x3 
= 0

x176x48x1 + x102x48x1 
- x48x0x1
- x48x20x1 - x48x8x1 
= 0
x22x48x2 + x86x48x2 
- x48x0x2

= 0


x176x27x1 + x53x27x1 + x132x27x1 
- x27x0x1

= 0


- x27x204x3 - x27x15x3 
= 0


x22x116x2 + x86x116x2 + x272x116x2 
- x116x0x2
- x116x15x2 
= 0


x176x156x1 + x220x156x1 + x102x156x1 + x254x156x1 
- x156x0x1

= 0

x73x156x3 + x102x156x3 + x91x156x3 
- x156x0x3
- x156x41x3 
= 0

x176x207x1 + x220x207x1 + x102x207x1 + x254x207x1 
- x207x0x1

= 0
x22x207x2 + x86x207x2 + x272x207x2 + x91x207x2 
- x207x0x2

= 0




x143x204x3 + x272x204x3 + x181x204x3 + x102x204x3 + x214x204x3 + x27x204x3 
- x204x0x3

= 0

x176x20x1 + x181x20x1 + x102x20x1 + x214x20x1 + x48x20x1 
- x20x0x1
- x20x8x1 
= 0

x272x20x3 + x181x20x3 + x102x20x3 + x91x20x3 + x214x20x3 
- x20x0x3

= 0


x196x15x2 + x22x15x2 + x86x15x2 + x272x15x2 + x53x15x2 + x91x15x2 + x116x15x2 
- x15x0x2

= 0
x272x15x3 + x181x15x3 + x102x15x3 + x91x15x3 + x214x15x3 + x27x15x3 
- x15x0x3

= 0

x176x8x1 + x181x8x1 + x102x8x1 + x214x8x1 + x48x8x1 + x20x8x1 
- x8x0x1

= 0





x259x41x3 + x272x41x3 + x73x41x3 + x181x41x3 + x102x41x3 + x91x41x3 + x156x41x3 
- x41x0x3

= 0

1y272 - x22x272x2 = 0
1y272 = 0
2y73 = 0
1y181 - x176x181x1 = 0
1y181 = 0
1y53 - x176x53x1 = 0
1y53 - x22x53x2 - x86x53x2 = 0
1y102 - x176x102x1 = 0
1y102 = 0
1y91 - x22x91x2 - x86x91x2 = 0
1y91 = 0
2y254 - x176x254x1 = 0
2y132 - x176x132x1 - x53x132x1 = 0
1y214 - x176x214x1 - x181x214x1 - x102x214x1 = 0
1y214 - x272x214x3 - x181x214x3 - x102x214x3 = 0
1y48 - x176x48x1 - x102x48x1 = 0
1y48 - x22x48x2 - x86x48x2 = 0
1y27 - x176x27x1 - x53x27x1 - x132x27x1 = 0
1y27 = 0
2y116 - x22x116x2 - x86x116x2 - x272x116x2 = 0
1y156 - x176x156x1 - x220x156x1 - x102x156x1 - x254x156x1 = 0
1y156 - x73x156x3 - x102x156x3 - x91x156x3 = 0
1y207 - x176x207x1 - x220x207x1 - x102x207x1 - x254x207x1 = 0
1y207 - x22x207x2 - x86x207x2 - x272x207x2 - x91x207x2 = 0
2y204 - x143x204x3 - x272x204x3 - x181x204x3 - x102x204x3 - x214x204x3 - x27x204x3 = 0
1y20 - x176x20x1 - x181x20x1 - x102x20x1 - x214x20x1 - x48x20x1 = 0
1y20 - x272x20x3 - x181x20x3 - x102x20x3 - x91x20x3 - x214x20x3 = 0
1y15 - x196x15x2 - x22x15x2 - x86x15x2 - x272x15x2 - x53x15x2 - x91x15x2 - x116x15x2 = 0
1y15 - x272x15x3 - x181x15x3 - x102x15x3 - x91x15x3 - x214x15x3 - x27x15x3 = 0
2y8 - x176x8x1 - x181x8x1 - x102x8x1 - x214x8x1 - x48x8x1 - x20x8x1 = 0
2y41 - x259x41x3 - x272x41x3 - x73x41x3 - x181x41x3 - x102x41x3 - x91x41x3 - x156x41x3 = 0

s196 - s15 + 9.312876z196z15z2 <= 8.05
s143 - s204 + 9.359537z143z204z3 <= 8.16
s259 - s41 + 9.356106z259z41z3 <= 8.17
s22 - s272 + 8.675173z22z272z2 <= 7.28
s22 - s53 + 8.517707z22z53z2 <= 7.28
s22 - s91 + 8.667751z22z91z2 <= 7.28
s22 - s48 + 8.790645z22z48z2 <= 7.28
s22 - s116 + 8.704820z22z116z2 <= 7.28
s22 - s207 + 8.685565z22z207z2 <= 7.28
s22 - s15 + 8.709563z22z15z2 <= 7.28
s176 - s181 + 8.521046z176z181z1 <= 7.21
s176 - s53 + 8.373779z176z53z1 <= 7.21
s176 - s102 + 8.658047z176z102z1 <= 7.21
s176 - s254 + 8.623819z176z254z1 <= 7.21
s176 - s132 + 8.379528z176z132z1 <= 7.21
s176 - s214 + 8.599970z176z214z1 <= 7.21
s176 - s48 + 8.713641z176z48z1 <= 7.21
s176 - s27 + 8.388545z176z27z1 <= 7.21
s176 - s156 + 8.664062z176z156z1 <= 7.21
s176 - s207 + 8.664644z176z207z1 <= 7.21
s176 - s20 + 8.806766z176z20z1 <= 7.21
s176 - s8 + 8.817772z176z8z1 <= 7.21
s86 - s53 + 8.864764z86z53z2 <= 7.38
s86 - s91 + 8.696276z86z91z2 <= 7.38
s86 - s48 + 8.900355z86z48z2 <= 7.38
s86 - s116 + 8.946119z86z116z2 <= 7.38
s86 - s207 + 8.641212z86z207z2 <= 7.38
s86 - s15 + 8.971235z86z15z2 <= 7.38
s220 - s156 + 9.079961z220z156z1 <= 7.88
s220 - s207 + 9.085222z220z207z1 <= 7.88
s272 - s214 + 9.912164z272z214z3 <= 8.87
s272 - s116 + 9.920772z272z116z2 <= 8.87
s272 - s207 + 10.329613z272z207z2 <= 8.87
s272 - s204 + 10.010159z272z204z3 <= 8.87
s272 - s20 + 10.132382z272z20z3 <= 8.87
s272 - s15 + 9.970222z272z15z2 <= 8.87
s272 - s15 + 9.970222z272z15z3 <= 8.87
s272 - s41 + 10.288781z272z41z3 <= 8.87
s73 - s156 + 9.948638z73z156z3 <= 8.88
s73 - s41 + 10.047199z73z41z3 <= 8.88
s181 - s214 + 9.962462z181z214z1 <= 8.88
s181 - s214 + 9.962462z181z214z3 <= 8.88
s181 - s204 + 9.975452z181z204z3 <= 8.88
s181 - s20 + 10.193404z181z20z1 <= 8.88
s181 - s20 + 10.193404z181z20z3 <= 8.88
s181 - s15 + 9.961377z181z15z3 <= 8.88
s181 - s8 + 10.209309z181z8z1 <= 8.88
s181 - s41 + 10.324072z181z41z3 <= 8.88
s53 - s132 + 9.984282z53z132z1 <= 8.89
s53 - s27 + 9.990222z53z27z1 <= 8.89
s53 - s15 + 10.270468z53z15z2 <= 8.89
s102 - s214 + 10.029204z102z214z1 <= 8.89
s102 - s214 + 10.029204z102z214z3 <= 8.89
s102 - s48 + 10.004115z102z48z1 <= 8.89
s102 - s156 + 10.309789z102z156z1 <= 8.89
s102 - s156 + 10.309789z102z156z3 <= 8.89
s102 - s207 + 10.291387z102z207z1 <= 8.89
s102 - s204 + 10.173628z102z204z3 <= 8.89
s102 - s20 + 10.043334z102z20z1 <= 8.89
s102 - s20 + 10.043334z102z20z3 <= 8.89
s102 - s15 + 10.121901z102z15z3 <= 8.89
s102 - s8 + 10.051246z102z8z1 <= 8.89
s102 - s41 + 10.228494z102z41z3 <= 8.89
s91 - s156 + 10.066789z91z156z3 <= 8.93
s91 - s207 + 10.047946z91z207z2 <= 8.93
s91 - s20 + 10.331387z91z20z3 <= 8.93
s91 - s15 + 10.377909z91z15z2 <= 8.93
s91 - s15 + 10.377909z91z15z3 <= 8.93
s91 - s41 + 10.003636z91z41z3 <= 8.93
s254 - s156 + 10.009628z254z156z1 <= 8.95
s254 - s207 + 10.026011z254z207z1 <= 8.95
s132 - s27 + 10.039428z132z27z1 <= 9.03
s214 - s204 + 10.201144z214z204z3 <= 9.05
s214 - s20 + 10.284852z214z20z1 <= 9.05
s214 - s20 + 10.284852z214z20z3 <= 9.05
s214 - s15 + 10.142857z214z15z3 <= 9.05
s214 - s8 + 10.302014z214z8z1 <= 9.05
s48 - s20 + 10.280124z48z20z1 <= 9.10
s48 - s8 + 10.273846z48z8z1 <= 9.10
s27 - s204 + 10.320501z27z204z3 <= 9.11
s27 - s15 + 10.391346z27z15z3 <= 9.11
s116 - s15 + 10.184975z116z15z2 <= 9.13
s156 - s41 + 10.438525z156z41z3 <= 9.33
s20 - s8 + 10.411082z20z8z1 <= 9.39

x196x15x2 - 1z196z15z2 <= 0
x143x204x3 - 2z143z204z3 <= 0
x259x41x3 - 2z259z41z3 <= 0
x22x272x2 - 1z22z272z2 <= 0
x22x53x2 - 1z22z53z2 <= 0
x22x91x2 - 1z22z91z2 <= 0
x22x48x2 - 1z22z48z2 <= 0
x22x116x2 - 2z22z116z2 <= 0
x22x207x2 - 1z22z207z2 <= 0
x22x15x2 - 1z22z15z2 <= 0
x176x181x1 - 1z176z181z1 <= 0
x176x53x1 - 1z176z53z1 <= 0
x176x102x1 - 1z176z102z1 <= 0
x176x254x1 - 2z176z254z1 <= 0
x176x132x1 - 2z176z132z1 <= 0
x176x214x1 - 1z176z214z1 <= 0
x176x48x1 - 1z176z48z1 <= 0
x176x27x1 - 1z176z27z1 <= 0
x176x156x1 - 1z176z156z1 <= 0
x176x207x1 - 1z176z207z1 <= 0
x176x20x1 - 1z176z20z1 <= 0
x176x8x1 - 2z176z8z1 <= 0
x86x53x2 - 1z86z53z2 <= 0
x86x91x2 - 1z86z91z2 <= 0
x86x48x2 - 1z86z48z2 <= 0
x86x116x2 - 2z86z116z2 <= 0
x86x207x2 - 1z86z207z2 <= 0
x86x15x2 - 1z86z15z2 <= 0
x220x156x1 - 1z220z156z1 <= 0
x220x207x1 - 1z220z207z1 <= 0
x272x214x3 - 1z272z214z3 <= 0
x272x116x2 - 2z272z116z2 <= 0
x272x207x2 - 1z272z207z2 <= 0
x272x204x3 - 2z272z204z3 <= 0
x272x20x3 - 1z272z20z3 <= 0
x272x15x2 - 1z272z15z2 <= 0
x272x15x3 - 1z272z15z3 <= 0
x272x41x3 - 2z272z41z3 <= 0
x272x0x2 <= 1
x272x0x3 <= 1
x73x156x3 - 1z73z156z3 <= 0
x73x41x3 - 2z73z41z3 <= 0
x73x0x3 <= 2
x181x214x1 - 1z181z214z1 <= 0
x181x214x3 - 1z181z214z3 <= 0
x181x204x3 - 2z181z204z3 <= 0
x181x20x1 - 1z181z20z1 <= 0
x181x20x3 - 1z181z20z3 <= 0
x181x15x3 - 1z181z15z3 <= 0
x181x8x1 - 2z181z8z1 <= 0
x181x41x3 - 2z181z41z3 <= 0
x181x0x1 <= 1
x181x0x3 <= 1
x53x132x1 - 2z53z132z1 <= 0
x53x27x1 - 1z53z27z1 <= 0
x53x15x2 - 1z53z15z2 <= 0
x53x0x1 <= 1
x53x0x2 <= 1
x102x214x1 - 1z102z214z1 <= 0
x102x214x3 - 1z102z214z3 <= 0
x102x48x1 - 1z102z48z1 <= 0
x102x156x1 - 1z102z156z1 <= 0
x102x156x3 - 1z102z156z3 <= 0
x102x207x1 - 1z102z207z1 <= 0
x102x204x3 - 2z102z204z3 <= 0
x102x20x1 - 1z102z20z1 <= 0
x102x20x3 - 1z102z20z3 <= 0
x102x15x3 - 1z102z15z3 <= 0
x102x8x1 - 2z102z8z1 <= 0
x102x41x3 - 2z102z41z3 <= 0
x102x0x1 <= 1
x102x0x3 <= 1
x91x156x3 - 1z91z156z3 <= 0
x91x207x2 - 1z91z207z2 <= 0
x91x20x3 - 1z91z20z3 <= 0
x91x15x2 - 1z91z15z2 <= 0
x91x15x3 - 1z91z15z3 <= 0
x91x41x3 - 2z91z41z3 <= 0
x91x0x2 <= 1
x91x0x3 <= 1
x254x156x1 - 1z254z156z1 <= 0
x254x207x1 - 1z254z207z1 <= 0
x254x0x1 <= 2
x132x27x1 - 1z132z27z1 <= 0
x132x0x1 <= 2
x214x204x3 - 2z214z204z3 <= 0
x214x20x1 - 1z214z20z1 <= 0
x214x20x3 - 1z214z20z3 <= 0
x214x15x3 - 1z214z15z3 <= 0
x214x8x1 - 2z214z8z1 <= 0
x214x0x1 <= 1
x214x0x3 <= 1
x48x20x1 - 1z48z20z1 <= 0
x48x8x1 - 2z48z8z1 <= 0
x48x0x1 <= 1
x48x0x2 <= 1
x27x204x3 - 2z27z204z3 <= 0
x27x15x3 - 1z27z15z3 <= 0
x27x0x1 <= 1
x27x0x3 <= 1
x116x15x2 - 1z116z15z2 <= 0
x116x0x2 <= 2
x156x41x3 - 2z156z41z3 <= 0
x156x0x1 <= 1
x156x0x3 <= 1
x207x0x1 <= 1
x207x0x2 <= 1
x204x0x3 <= 2
x20x8x1 - 2z20z8z1 <= 0
x20x0x1 <= 1
x20x0x3 <= 1
x15x0x2 <= 1
x15x0x3 <= 1
x8x0x1 <= 2
x41x0x3 <= 2

s272 - 6.00z22z272z2 >= 0
s181 - 6.00z176z181z1 >= 0
s53 - 6.00z22z53z2 >= 0
s53 - 6.00z176z53z1 >= 0
s53 - 6.00z86z53z2 >= 0
s102 - 6.00z176z102z1 >= 0
s91 - 6.00z22z91z2 >= 0
s91 - 6.00z86z91z2 >= 0
s254 - 6.00z176z254z1 >= 0
s132 - 6.00z176z132z1 >= 0
s132 - 6.00z53z132z1 >= 0
s214 - 6.00z176z214z1 >= 0
s214 - 6.00z272z214z3 >= 0
s214 - 6.00z181z214z1 >= 0
s214 - 6.00z181z214z3 >= 0
s214 - 6.00z102z214z1 >= 0
s214 - 6.00z102z214z3 >= 0
s48 - 6.00z22z48z2 >= 0
s48 - 6.00z176z48z1 >= 0
s48 - 6.00z86z48z2 >= 0
s48 - 6.00z102z48z1 >= 0
s27 - 6.00z176z27z1 >= 0
s27 - 6.00z53z27z1 >= 0
s27 - 6.00z132z27z1 >= 0
s116 - 6.00z22z116z2 >= 0
s116 - 6.00z86z116z2 >= 0
s116 - 6.00z272z116z2 >= 0
s156 - 6.00z176z156z1 >= 0
s156 - 6.00z220z156z1 >= 0
s156 - 6.00z73z156z3 >= 0
s156 - 6.00z102z156z1 >= 0
s156 - 6.00z102z156z3 >= 0
s156 - 6.00z91z156z3 >= 0
s156 - 6.00z254z156z1 >= 0
s207 - 6.00z22z207z2 >= 0
s207 - 6.00z176z207z1 >= 0
s207 - 6.00z86z207z2 >= 0
s207 - 6.00z220z207z1 >= 0
s207 - 6.00z272z207z2 >= 0
s207 - 6.00z102z207z1 >= 0
s207 - 6.00z91z207z2 >= 0
s207 - 6.00z254z207z1 >= 0
s204 - 6.00z143z204z3 >= 0
s204 - 6.00z272z204z3 >= 0
s204 - 6.00z181z204z3 >= 0
s204 - 6.00z102z204z3 >= 0
s204 - 6.00z214z204z3 >= 0
s204 - 6.00z27z204z3 >= 0
s20 - 6.00z176z20z1 >= 0
s20 - 6.00z272z20z3 >= 0
s20 - 6.00z181z20z1 >= 0
s20 - 6.00z181z20z3 >= 0
s20 - 6.00z102z20z1 >= 0
s20 - 6.00z102z20z3 >= 0
s20 - 6.00z91z20z3 >= 0
s20 - 6.00z214z20z1 >= 0
s20 - 6.00z214z20z3 >= 0
s20 - 6.00z48z20z1 >= 0
s15 - 6.00z196z15z2 >= 0
s15 - 6.00z22z15z2 >= 0
s15 - 6.00z86z15z2 >= 0
s15 - 6.00z272z15z2 >= 0
s15 - 6.00z272z15z3 >= 0
s15 - 6.00z181z15z3 >= 0
s15 - 6.00z53z15z2 >= 0
s15 - 6.00z102z15z3 >= 0
s15 - 6.00z91z15z2 >= 0
s15 - 6.00z91z15z3 >= 0
s15 - 6.00z214z15z3 >= 0
s15 - 6.00z27z15z3 >= 0
s15 - 6.00z116z15z2 >= 0
s8 - 6.00z176z8z1 >= 0
s8 - 6.00z181z8z1 >= 0
s8 - 6.00z102z8z1 >= 0
s8 - 6.00z214z8z1 >= 0
s8 - 6.00z48z8z1 >= 0
s8 - 6.00z20z8z1 >= 0
s41 - 6.00z259z41z3 >= 0
s41 - 6.00z272z41z3 >= 0
s41 - 6.00z73z41z3 >= 0
s41 - 6.00z181z41z3 >= 0
s41 - 6.00z102z41z3 >= 0
s41 - 6.00z91z41z3 >= 0
s41 - 6.00z156z41z3 >= 0

Bounds
s196 = 8.053560
s143 = 8.163465
s259 = 8.166369
s109 = 8.456237
s266 = 8.516902
s209 = 8.397770
s239 = 8.593310
s170 = 8.631722
s172 = 8.658880
s270 = 8.704298
s54 = 8.818511
s22 = 7.276230
s176 = 7.206580
s86 = 7.381810
s220 = 7.879850
7.870000 <= s272 <= 8.870000
7.880000 <= s73 <= 8.880000
7.880000 <= s181 <= 8.880000
7.890000 <= s53 <= 8.890000
7.890000 <= s102 <= 8.890000
7.930000 <= s91 <= 8.930000
7.950000 <= s254 <= 8.950000
8.030000 <= s132 <= 9.030000
8.050000 <= s214 <= 9.050000
8.100000 <= s48 <= 9.100000
8.110000 <= s27 <= 9.110000
8.130000 <= s116 <= 9.130000
8.330000 <= s156 <= 9.330000
8.330000 <= s207 <= 9.330000
8.380000 <= s204 <= 9.380000
8.390000 <= s20 <= 9.390000
8.400000 <= s15 <= 9.400000
8.420000 <= s8 <= 9.420000
8.470000 <= s41 <= 9.470000

General
x196x15x2 
x143x204x3 
x259x41x3 








x22x272x2 x22x53x2 x22x91x2 x22x48x2 x22x116x2 x22x207x2 x22x15x2 
x176x181x1 x176x53x1 x176x102x1 x176x254x1 x176x132x1 x176x214x1 x176x48x1 x176x27x1 x176x156x1 x176x207x1 x176x20x1 x176x8x1 
x86x53x2 x86x91x2 x86x48x2 x86x116x2 x86x207x2 x86x15x2 
x220x156x1 x220x207x1 
x272x214x3 x272x116x2 x272x207x2 x272x204x3 x272x20x3 x272x15x2 x272x15x3 x272x41x3 x272x0x2 x272x0x3 
x73x156x3 x73x41x3 x73x0x3 
x181x214x1 x181x214x3 x181x204x3 x181x20x1 x181x20x3 x181x15x3 x181x8x1 x181x41x3 x181x0x1 x181x0x3 
x53x132x1 x53x27x1 x53x15x2 x53x0x1 x53x0x2 
x102x214x1 x102x214x3 x102x48x1 x102x156x1 x102x156x3 x102x207x1 x102x204x3 x102x20x1 x102x20x3 x102x15x3 x102x8x1 x102x41x3 x102x0x1 x102x0x3 
x91x156x3 x91x207x2 x91x20x3 x91x15x2 x91x15x3 x91x41x3 x91x0x2 x91x0x3 
x254x156x1 x254x207x1 x254x0x1 
x132x27x1 x132x0x1 
x214x204x3 x214x20x1 x214x20x3 x214x15x3 x214x8x1 x214x0x1 x214x0x3 
x48x20x1 x48x8x1 x48x0x1 x48x0x2 
x27x204x3 x27x15x3 x27x0x1 x27x0x3 
x116x15x2 x116x0x2 
x156x41x3 x156x0x1 x156x0x3 
x207x0x1 x207x0x2 
x204x0x3 
x20x8x1 x20x0x1 x20x0x3 
x15x0x2 x15x0x3 
x8x0x1 
x41x0x3 

Binaries
y272 y73 y181 y53 y102 y91 y254 y132 y214 y48 y27 y116 y156 y207 y204 y20 y15 y8 y41 
z196z15z2 
z143z204z3 
z259z41z3 








z22z272z2 z22z53z2 z22z91z2 z22z48z2 z22z116z2 z22z207z2 z22z15z2 
z176z181z1 z176z53z1 z176z102z1 z176z254z1 z176z132z1 z176z214z1 z176z48z1 z176z27z1 z176z156z1 z176z207z1 z176z20z1 z176z8z1 
z86z53z2 z86z91z2 z86z48z2 z86z116z2 z86z207z2 z86z15z2 
z220z156z1 z220z207z1 
z272z214z3 z272z116z2 z272z207z2 z272z204z3 z272z20z3 z272z15z2 z272z15z3 z272z41z3 
z73z156z3 z73z41z3 
z181z214z1 z181z214z3 z181z204z3 z181z20z1 z181z20z3 z181z15z3 z181z8z1 z181z41z3 
z53z132z1 z53z27z1 z53z15z2 
z102z214z1 z102z214z3 z102z48z1 z102z156z1 z102z156z3 z102z207z1 z102z204z3 z102z20z1 z102z20z3 z102z15z3 z102z8z1 z102z41z3 
z91z156z3 z91z207z2 z91z20z3 z91z15z2 z91z15z3 z91z41z3 
z254z156z1 z254z207z1 
z132z27z1 
z214z204z3 z214z20z1 z214z20z3 z214z15z3 z214z8z1 
z48z20z1 z48z8z1 
z27z204z3 z27z15z3 
z116z15z2 
z156z41z3 


z20z8z1 




End